#### H diffusion in FCC Ni at 800K, initial concentraion = cos(z)

units		metal
dimension 	3
boundary        p p p
atom_style	atomic

variable        a0 equal 3.566
variable        T  equal 800.00
lattice 	fcc $(v_a0) orient x 1 0 0 orient y 0 1 0 orient z 0 0 1
region 		main block $(-v_a0*5) $(v_a0*5) $(-v_a0*5) $(v_a0*5) $(-v_a0*80) $(v_a0*80) units box
create_box 	2 main
create_atoms    1 box 
create_atoms    2 box

group           Ni type 1
group           H type 2
displace_atoms  H move $(v_a0/2) 0 0 units box

pair_style	eam/alloy
pair_coeff	* * ../../Ni_H.alloy Ni H
thermo		1000
thermo_style    custom step temp press etotal ke pxx pyy pzz lx ly lz atoms
timestep	0.001
 
dump            1 all custom 50000 dump.NiH_expC_diffuse_800K_seed0.10ns id type x y z
log             log.NiH_diffuse_expC_800K_seed0.10ns

#####################################################create exponential profile of H concentration along z
label           loop_a
variable        layer_num loop 161

variable        rand_seed equal ceil(random(1,1000000000,10)/100000.0)

region          r1 block INF INF INF INF $(-v_a0/2*(v_layer_num-1)-0.1) $(-v_a0/2*(v_layer_num-1)+0.1) units box
region          r2 block INF INF INF INF $(v_a0/2*(v_layer_num-1)-0.1) $(v_a0/2*(v_layer_num-1)+0.1) units box
region          delete_region union 2 r1 r2 

variable        H_ratio equal (161-v_layer_num)/160*0.1

delete_atoms    random fraction $(v_H_ratio) yes H delete_region $(v_rand_seed) compress yes

region          r1 delete
region          r2 delete
region          delete_region delete

next            layer_num
jump            in.diffuse_H_800K loop_a
############################################################
write_data      data.NiH_expC_800K_initial

region          center_layer block INF INF INF INF $(-v_a0*0.25) $(v_a0*0.25) units box
group           center_layer_atoms region center_layer
group           center_layer_Ni intersect center_layer_atoms Ni

velocity        all create $(v_T) $(v_rand_seed) rot yes dist gaussian
velocity        center_layer_Ni set NULL NULL 0
###############################################################
label           loop_b
variable        b loop 10000

fix             1 all npt temp $(v_T) $(v_T) 0.1 aniso 0 0 1  
fix             2 center_layer_Ni setforce NULL NULL 0 

run             1000

unfix 1
unfix 2

group           center_atoms region center_layer
group           H type 2
group           center_layer_H intersect center_atoms H
delete_atoms    random count 1 no center_layer_H NULL $(v_rand_seed) compress yes

variable        remainder equal step-floor(step/10000)*10000
if "${remainder}==0" then &
"region          top_layer block INF INF INF INF $(zhi-v_a0*0.25) INF units box" &
"region          bottom_layer block INF INF INF INF INF $(zlo+v_a0*0.25) units box" &
"region          boundary_layer union 2 top_layer bottom_layer" &
"group           boundary_layer_atoms region boundary_layer" &
"group           boundary_layer_H intersect boundary_layer_atoms H" &
"delete_atoms    random count 1 no boundary_layer_H NULL $(v_rand_seed) compress yes" &
"region top_layer delete" &
"region bottom_layer delete" &
"region boundary_layer delete" &
"group boundary_layer_atoms delete" &
"group boundary_layer_H delete"

group center_atoms delete
group H delete
group center_layer_H delete

next            b
jump            in.diffuse_H_800K loop_b

write_data      data.NiH_expC_800K_diffuse.10ns

minimize        1.0e-6 1.0e-8 10000 10000
write_data      data.NiH_expC_800K_diffuse.10ns_minimize
